num_bp = 1;
nres = 100;
ncoup = 30;
nhosp = 10;
max_rpref_len = 25;
max_hpref_len = 46;
rpref = [|5,7,5,7,5,1,7,1,0,0,0,0,0,0,0,0,0,0,0,0,0,0,0,0,0,0
     |5,5,4,4,9,5,9,4,0,0,0,0,0,0,0,0,0,0,0,0,0,0,0,0,0,0
     |10,3,10,3,0,0,0,0,0,0,0,0,0,0,0,0,0,0,0,0,0,0,0,0,0,0
     |7,7,9,9,0,0,0,0,0,0,0,0,0,0,0,0,0,0,0,0,0,0,0,0,0,0
     |10,10,9,9,10,3,3,9,3,2,10,2,9,3,2,2,0,0,0,0,0,0,0,0,0,0
     |2,8,2,8,6,2,8,6,6,2,5,8,5,5,6,5,0,0,0,0,0,0,0,0,0,0
     |10,10,5,5,10,8,8,5,8,0,0,0,0,0,0,0,0,0,0,0,0,0,0,0,0,0
     |10,4,10,4,8,10,4,8,8,0,0,0,0,0,0,0,0,0,0,0,0,0,0,0,0,0
     |5,1,0,0,0,0,0,0,0,0,0,0,0,0,0,0,0,0,0,0,0,0,0,0,0,0
     |3,3,0,0,0,0,0,0,0,0,0,0,0,0,0,0,0,0,0,0,0,0,0,0,0,0
     |6,5,6,5,6,9,9,5,9,6,5,9,0,0,0,0,0,0,0,0,0,0,0,0,0,0
     |9,9,2,2,6,9,2,6,6,4,4,4,0,0,0,0,0,0,0,0,0,0,0,0,0,0
     |6,2,6,2,4,6,2,4,4,7,7,7,10,10,10,0,0,0,0,0,0,0,0,0,0,0
     |7,7,10,10,7,1,1,10,1,7,10,1,7,10,1,0,0,0,0,0,0,0,0,0,0,0
     |9,9,6,6,9,8,8,6,8,0,0,0,0,0,0,0,0,0,0,0,0,0,0,0,0,0
     |9,7,9,7,6,9,7,6,6,0,0,0,0,0,0,0,0,0,0,0,0,0,0,0,0,0
     |10,2,0,0,0,0,0,0,0,0,0,0,0,0,0,0,0,0,0,0,0,0,0,0,0,0
     |5,5,0,0,0,0,0,0,0,0,0,0,0,0,0,0,0,0,0,0,0,0,0,0,0,0
     |10,10,4,4,9,10,9,4,9,7,7,7,0,0,0,0,0,0,0,0,0,0,0,0,0,0
     |9,3,9,3,9,7,3,7,7,9,3,7,0,0,0,0,0,0,0,0,0,0,0,0,0,0
     |5,3,5,3,0,0,0,0,0,0,0,0,0,0,0,0,0,0,0,0,0,0,0,0,0,0
     |4,4,7,7,0,0,0,0,0,0,0,0,0,0,0,0,0,0,0,0,0,0,0,0,0,0
     |9,9,2,2,9,10,2,10,10,9,2,10,9,2,10,0,0,0,0,0,0,0,0,0,0,0
     |8,10,8,10,5,8,5,10,5,7,7,7,6,6,6,0,0,0,0,0,0,0,0,0,0,0
     |4,4,9,9,4,10,10,9,10,4,9,10,4,9,10,0,0,0,0,0,0,0,0,0,0,0
     |4,9,4,9,5,4,9,5,5,8,8,8,7,7,7,0,0,0,0,0,0,0,0,0,0,0
     |7,7,5,7,5,5,6,6,7,5,6,6,9,9,9,9,0,0,0,0,0,0,0,0,0,0
     |8,9,8,6,9,6,8,9,5,5,6,5,8,9,6,5,0,0,0,0,0,0,0,0,0,0
     |8,1,8,1,8,7,0,0,0,0,0,0,0,0,0,0,0,0,0,0,0,0,0,0,0,0
     |3,3,6,6,5,3,0,0,0,0,0,0,0,0,0,0,0,0,0,0,0,0,0,0,0,0
     |8,8,2,2,8,6,2,6,6,7,7,7,0,0,0,0,0,0,0,0,0,0,0,0,0,0
     |6,9,6,9,7,6,7,9,7,6,9,7,0,0,0,0,0,0,0,0,0,0,0,0,0,0
     |3,6,3,6,3,7,7,6,7,3,8,8,6,8,7,8,10,10,10,10,0,0,0,0,0,0
     |4,4,8,8,10,4,8,10,10,5,4,8,5,10,5,5,4,8,10,5,0,0,0,0,0,0
     |8,7,8,7,1,0,0,0,0,0,0,0,0,0,0,0,0,0,0,0,0,0,0,0,0,0
     |5,5,8,8,5,0,0,0,0,0,0,0,0,0,0,0,0,0,0,0,0,0,0,0,0,0
     |6,10,6,10,6,4,10,4,4,9,6,9,10,9,4,9,6,10,4,9,0,0,0,0,0,0
     |10,10,7,7,6,10,6,7,6,10,2,7,2,6,2,2,3,3,3,3,0,0,0,0,0,0
     |5,5,9,9,5,9,0,0,0,0,0,0,0,0,0,0,0,0,0,0,0,0,0,0,0,0
     |9,6,9,6,7,7,0,0,0,0,0,0,0,0,0,0,0,0,0,0,0,0,0,0,0,0
     |9,9,6,6,8,9,8,6,8,9,6,8,9,6,8,0,0,0,0,0,0,0,0,0,0,0
     |10,2,10,2,10,1,2,1,1,6,6,6,8,8,8,0,0,0,0,0,0,0,0,0,0,0
     |10,10,5,5,7,0,0,0,0,0,0,0,0,0,0,0,0,0,0,0,0,0,0,0,0,0
     |9,7,9,7,9,0,0,0,0,0,0,0,0,0,0,0,0,0,0,0,0,0,0,0,0,0
     |5,5,7,7,10,5,10,7,10,8,8,8,0,0,0,0,0,0,0,0,0,0,0,0,0,0
     |7,10,7,10,7,3,10,3,3,7,10,3,0,0,0,0,0,0,0,0,0,0,0,0,0,0
     |7,6,7,6,7,8,6,0,0,0,0,0,0,0,0,0,0,0,0,0,0,0,0,0,0,0
     |7,7,5,5,6,7,6,0,0,0,0,0,0,0,0,0,0,0,0,0,0,0,0,0,0,0
     |3,3,6,6,5,3,5,6,5,4,4,4,0,0,0,0,0,0,0,0,0,0,0,0,0,0
     |1,10,1,10,1,3,10,3,3,1,10,3,0,0,0,0,0,0,0,0,0,0,0,0,0,0
     |10,10,9,9,10,4,4,9,4,7,10,7,9,7,4,7,10,8,9,8,4,8,7,0,0,0
     |4,3,4,3,9,4,3,9,9,4,7,3,7,9,7,7,5,4,5,3,5,9,5,0,0,0
     |4,7,4,7,9,4,7,9,9,4,7,9,4,7,9,0,0,0,0,0,0,0,0,0,0,0
     |4,4,8,8,4,7,7,8,7,3,3,3,2,2,2,0,0,0,0,0,0,0,0,0,0,0
     |5,6,5,6,10,5,0,0,0,0,0,0,0,0,0,0,0,0,0,0,0,0,0,0,0,0
     |8,8,7,7,8,6,0,0,0,0,0,0,0,0,0,0,0,0,0,0,0,0,0,0,0,0
     |10,4,10,4,10,6,4,6,6,9,10,9,4,9,6,9,5,5,5,5,0,0,0,0,0,0
     |7,7,8,8,10,7,10,8,10,7,3,8,3,10,3,3,7,8,10,3,0,0,0,0,0,0
     |10,10,7,7,9,10,7,9,9,10,8,8,7,8,9,8,1,10,7,1,1,9,8,1,1,0
     |5,9,5,9,5,6,6,9,6,8,5,9,8,6,8,8,5,7,7,9,6,7,7,8,7,0
     |7,8,9,4,0,0,0,0,0,0,0,0,0,0,0,0,0,0,0,0,0,0,0,0,0,0
     |7,9,0,0,0,0,0,0,0,0,0,0,0,0,0,0,0,0,0,0,0,0,0,0,0,0
     |8,3,4,0,0,0,0,0,0,0,0,0,0,0,0,0,0,0,0,0,0,0,0,0,0,0
     |9,10,5,0,0,0,0,0,0,0,0,0,0,0,0,0,0,0,0,0,0,0,0,0,0,0
     |2,9,5,6,0,0,0,0,0,0,0,0,0,0,0,0,0,0,0,0,0,0,0,0,0,0
     |8,5,1,0,0,0,0,0,0,0,0,0,0,0,0,0,0,0,0,0,0,0,0,0,0,0
     |3,8,10,6,0,0,0,0,0,0,0,0,0,0,0,0,0,0,0,0,0,0,0,0,0,0
     |7,10,6,0,0,0,0,0,0,0,0,0,0,0,0,0,0,0,0,0,0,0,0,0,0,0
     |5,4,8,6,9,0,0,0,0,0,0,0,0,0,0,0,0,0,0,0,0,0,0,0,0,0
     |10,5,6,3,0,0,0,0,0,0,0,0,0,0,0,0,0,0,0,0,0,0,0,0,0,0
     |10,8,2,6,4,0,0,0,0,0,0,0,0,0,0,0,0,0,0,0,0,0,0,0,0,0
     |8,2,0,0,0,0,0,0,0,0,0,0,0,0,0,0,0,0,0,0,0,0,0,0,0,0
     |3,6,0,0,0,0,0,0,0,0,0,0,0,0,0,0,0,0,0,0,0,0,0,0,0,0
     |8,5,7,4,0,0,0,0,0,0,0,0,0,0,0,0,0,0,0,0,0,0,0,0,0,0
     |7,10,3,1,0,0,0,0,0,0,0,0,0,0,0,0,0,0,0,0,0,0,0,0,0,0
     |5,7,8,0,0,0,0,0,0,0,0,0,0,0,0,0,0,0,0,0,0,0,0,0,0,0
     |2,6,0,0,0,0,0,0,0,0,0,0,0,0,0,0,0,0,0,0,0,0,0,0,0,0
     |9,4,0,0,0,0,0,0,0,0,0,0,0,0,0,0,0,0,0,0,0,0,0,0,0,0
     |1,9,8,0,0,0,0,0,0,0,0,0,0,0,0,0,0,0,0,0,0,0,0,0,0,0
     |9,10,4,0,0,0,0,0,0,0,0,0,0,0,0,0,0,0,0,0,0,0,0,0,0,0
     |10,3,0,0,0,0,0,0,0,0,0,0,0,0,0,0,0,0,0,0,0,0,0,0,0,0
     |2,10,9,8,4,0,0,0,0,0,0,0,0,0,0,0,0,0,0,0,0,0,0,0,0,0
     |9,4,1,8,0,0,0,0,0,0,0,0,0,0,0,0,0,0,0,0,0,0,0,0,0,0
     |6,10,7,4,5,0,0,0,0,0,0,0,0,0,0,0,0,0,0,0,0,0,0,0,0,0
     |7,5,10,8,9,0,0,0,0,0,0,0,0,0,0,0,0,0,0,0,0,0,0,0,0,0
     |5,3,2,10,0,0,0,0,0,0,0,0,0,0,0,0,0,0,0,0,0,0,0,0,0,0
     |10,6,8,0,0,0,0,0,0,0,0,0,0,0,0,0,0,0,0,0,0,0,0,0,0,0
     |4,9,3,0,0,0,0,0,0,0,0,0,0,0,0,0,0,0,0,0,0,0,0,0,0,0
     |8,6,9,7,10,0,0,0,0,0,0,0,0,0,0,0,0,0,0,0,0,0,0,0,0,0
     |3,6,9,0,0,0,0,0,0,0,0,0,0,0,0,0,0,0,0,0,0,0,0,0,0,0
     |9,6,8,0,0,0,0,0,0,0,0,0,0,0,0,0,0,0,0,0,0,0,0,0,0,0
     |5,10,9,7,4,0,0,0,0,0,0,0,0,0,0,0,0,0,0,0,0,0,0,0,0,0
     |2,7,9,8,0,0,0,0,0,0,0,0,0,0,0,0,0,0,0,0,0,0,0,0,0,0
     |2,8,1,0,0,0,0,0,0,0,0,0,0,0,0,0,0,0,0,0,0,0,0,0,0,0
     |4,9,0,0,0,0,0,0,0,0,0,0,0,0,0,0,0,0,0,0,0,0,0,0,0,0
     |5,6,1,0,0,0,0,0,0,0,0,0,0,0,0,0,0,0,0,0,0,0,0,0,0,0
     |10,4,7,0,0,0,0,0,0,0,0,0,0,0,0,0,0,0,0,0,0,0,0,0,0,0
     |9,3,2,8,0,0,0,0,0,0,0,0,0,0,0,0,0,0,0,0,0,0,0,0,0,0
     |7,4,9,8,10,0,0,0,0,0,0,0,0,0,0,0,0,0,0,0,0,0,0,0,0,0
     |1,8,3,5,0,0,0,0,0,0,0,0,0,0,0,0,0,0,0,0,0,0,0,0,0,0|];
rpref_len = [8,8,4,4,16,16,9,9,2,2,12,12,15,15,9,9,2,2,12,12,4,4,15,15,15,15,16,16,6,6,12,12,20,20,5,5,20,20,6,6,15,15,5,5,12,12,7,7,12,12,23,23,15,15,6,6,20,20,25,25,4,2,3,3,4,3,4,3,5,4,5,2,2,4,4,3,2,2,3,3,2,5,4,5,5,4,3,3,5,3,3,5,4,3,2,3,3,4,5,4];
hpref = [|94,9,42,1,35,83,66,29,14,79,75,96,59,100,50,0,0,0,0,0,0,0,0,0,0,0,0,0,0,0,0,0,0,0,0,0,0,0,0,0,0,0,0,0,0,0
     |72,98,42,77,71,38,54,17,65,5,12,23,82,94,86,13,6,93,31,0,0,0,0,0,0,0,0,0,0,0,0,0,0,0,0,0,0,0,0,0,0,0,0,0,0,0
     |100,54,67,30,10,73,70,81,86,5,75,3,21,50,49,58,90,98,63,38,52,20,33,46,88,0,0,0,0,0,0,0,0,0,0,0,0,0,0,0,0,0,0,0,0,0
     |63,34,2,82,84,78,97,95,92,37,83,71,25,49,19,51,26,54,80,57,69,8,61,53,12,99,22,52,88,74,13,0,0,0,0,0,0,0,0,0,0,0,0,0,0,0
     |24,64,18,2,9,36,52,7,34,43,92,55,21,27,70,28,76,1,96,84,74,45,66,85,6,48,100,30,49,86,69,26,65,60,57,39,11,0,0,0,0,0,0,0,0,0
     |48,38,89,56,73,77,47,87,55,15,12,67,6,71,27,30,69,16,49,32,57,42,33,91,28,70,24,96,84,60,90,41,65,11,68,40,13,37,31,0,0,0,0,0,0,0
     |35,93,51,62,22,32,76,52,29,47,43,84,99,27,38,48,31,26,85,92,58,53,54,40,24,97,45,60,74,61,68,46,44,59,20,33,16,56,14,4,19,75,89,1,13,0
     |93,58,61,34,98,79,6,91,29,72,56,7,63,83,71,82,51,24,41,45,69,85,89,66,76,87,8,36,15,99,94,54,35,42,33,59,28,60,47,26,74,67,100,31,0,0
     |12,4,64,78,79,44,91,95,59,62,53,27,99,83,51,25,15,98,82,57,26,88,5,65,23,2,28,89,37,60,19,39,85,90,40,52,69,41,20,32,61,93,80,92,16,11
     |3,57,17,38,81,13,55,24,51,86,92,89,25,5,67,84,75,64,80,68,14,97,23,8,70,42,19,58,37,45,59,7,99,87,82,34,33,46,85,43,50,71,0,0,0,0|];
hpref_len = [15,19,25,31,37,39,45,44,46,42];
hrank = [|4,0,0,0,0,0,0,0,2,0,0,0,0,9,0,0,0,0,0,0,0,0,0,0,0,0,0,0,8,0,0,0,0,0,5,0,0,0,0,0,0,3,0,0,0,0,0,0,0,15,0,0,0,0,0,0,0,0,13,0,0,0,0,0,0,7,0,0,0,0,0,0,0,0,11,0,0,0,10,0,0,0,6,0,0,0,0,0,0,0,0,0,0,1,0,12,0,0,0,14
     |0,0,0,0,10,17,0,0,0,0,0,11,16,0,0,0,8,0,0,0,0,0,12,0,0,0,0,0,0,0,19,0,0,0,0,0,0,6,0,0,0,3,0,0,0,0,0,0,0,0,0,0,0,7,0,0,0,0,0,0,0,0,0,0,9,0,0,0,0,0,5,1,0,0,0,0,4,0,0,0,0,13,0,0,0,15,0,0,0,0,0,0,18,14,0,0,0,2,0,0
     |0,0,12,0,10,0,0,0,0,5,0,0,0,0,0,0,0,0,0,22,13,0,0,0,0,0,0,0,0,4,0,0,23,0,0,0,0,20,0,0,0,0,0,0,0,24,0,0,15,14,0,21,0,2,0,0,0,16,0,0,0,0,19,0,0,0,3,0,0,7,0,0,6,0,11,0,0,0,0,0,8,0,0,0,0,9,0,25,0,17,0,0,0,0,0,0,0,18,0,1
     |0,3,0,0,0,0,0,22,0,0,0,25,31,0,0,0,0,0,15,0,0,27,0,0,13,17,0,0,0,0,0,0,0,2,0,0,10,0,0,0,0,0,0,0,0,0,0,0,14,0,16,28,24,18,0,0,20,0,0,0,23,0,1,0,0,0,0,0,21,0,12,0,0,30,0,0,0,6,0,19,0,4,11,5,0,0,0,29,0,0,0,9,0,0,8,0,7,0,26,0
     |18,4,0,0,0,25,8,0,5,0,37,0,0,0,0,0,0,3,0,0,13,0,0,1,0,32,14,16,0,28,0,0,0,9,0,6,0,0,36,0,0,0,10,0,22,0,0,26,29,0,0,7,0,0,12,0,35,0,0,34,0,0,0,2,33,23,0,0,31,15,0,0,0,21,0,17,0,0,0,0,0,0,0,20,24,30,0,0,0,0,0,11,0,0,0,19,0,0,0,27
     |0,0,0,0,0,13,0,0,0,0,34,11,37,0,10,18,0,0,0,0,0,0,0,27,0,0,15,25,0,16,39,20,23,0,0,0,38,2,0,36,32,22,0,0,0,0,7,1,19,0,0,0,0,0,9,4,21,0,0,30,0,0,0,0,33,0,12,35,17,26,14,0,5,0,0,0,6,0,0,0,0,0,0,29,0,0,8,0,3,31,24,0,0,0,0,28,0,0,0,0
     |44,0,0,40,0,0,0,0,0,0,0,0,45,39,0,37,0,0,41,35,0,5,0,25,0,18,14,0,9,0,17,6,36,0,1,0,0,15,0,24,0,0,11,33,27,32,10,16,0,0,3,8,22,23,0,38,0,21,34,28,30,4,0,0,0,0,0,31,0,0,0,0,0,29,42,7,0,0,0,0,0,0,0,12,19,0,0,0,43,0,0,20,2,0,0,0,26,0,13,0
     |0,0,0,0,0,7,12,27,0,0,0,0,0,0,29,0,0,0,0,0,0,0,0,18,0,40,0,37,9,0,44,0,35,4,33,28,0,0,0,0,19,34,0,0,20,0,39,0,0,0,17,0,0,32,0,11,0,2,36,38,3,0,13,0,0,24,42,0,21,0,15,10,0,41,0,25,0,0,6,0,0,16,14,0,22,0,26,0,23,0,8,0,1,31,0,0,0,5,30,43
     |0,26,0,2,23,0,0,0,0,0,46,1,0,0,17,45,0,0,31,39,0,0,25,0,16,21,12,27,0,0,0,40,0,0,0,0,29,0,32,35,38,0,0,6,0,0,0,0,0,0,15,36,11,0,0,0,20,0,9,30,41,10,0,3,24,0,0,0,37,0,0,0,0,0,0,0,0,4,5,43,0,19,14,0,33,0,0,22,28,34,7,44,42,0,8,0,0,18,13,0
     |0,0,1,0,14,0,32,24,0,0,0,0,6,21,0,0,3,0,27,0,0,0,23,8,13,0,0,0,0,0,0,0,37,36,0,0,29,4,0,0,0,26,40,0,30,38,0,0,0,41,9,0,0,0,7,0,2,28,31,0,0,0,0,18,0,0,15,20,0,25,42,0,0,0,17,0,0,0,0,19,5,35,0,16,39,10,34,0,12,0,0,11,0,0,0,0,22,0,33,0|];
hosp_cap = [7,9,14,9,13,8,11,13,10,6];
